NAME : XML100_2266_04
DIMENSION : 101
NB_CLUSTERS : 3
CLUSTERING_ALG : DBSCAN
CLUSTERING_PARAMS : eps(69), minSamples(3)
CLUSTERS
1 0
2 1 4 10 11 12 13 15 16 19 20 24 27 29 36 38 43 44 48 50 52 60 62 64 65 68 69 73 74 75 77 78 80 85 86 87 90 91 94 97 98 99 100
3 2 3 5 6 7 8 9 14 17 18 21 22 23 25 26 28 30 31 32 33 34 35 37 39 40 41 42 45 46 47 49 51 53 54 55 56 57 58 59 61 63 66 67 70 71 72 76 79 81 82 83 84 88 89 92 93 95 96
EOF